g3 3 1 0	# problem ex9_1_6
 20 19 1 0 7	# vars, constraints, objectives, ranges, eqns
 0 0	# nonlinear constraints, objectives
 0 0	# network constraints: nonlinear, linear
 0 0 0	# nonlinear vars in constraints, objectives, both
 0 0 0 1	# linear network variables; functions; arith, flags
 0 0 0 0 0	# discrete variables: binary, integer, nonlinear (b,c,o)
 47 2	# nonzeros in Jacobian, gradients
 0 0	# max name lengths: constraints, variables
 0 0 0 0 0	# common exprs: b,c,o,c1,o1
b
2 0
2 0
0 0 200
0 0 200
0 0 200
0 0 200
0 0 200
0 0 200
0 0 200
0 0 200
0 0 200
0 0 200
0 0 200
0 0 200
0 0 1
0 0 1
0 0 1
0 0 1
0 0 1
0 0 1
r
4 -10
4 6
4 21
4 38
4 18
4 0
4 -3
1 0
1 0
1 0
1 0
1 0
1 0
1 400
1 400
1 400
1 400
1 400
1 400
C0
n0
C1
n0
C2
n0
C3
n0
C4
n0
C5
n0
C6
n0
C7
n0
C8
n0
C9
n0
C10
n0
C11
n0
C12
n0
C13
n0
C14
n0
C15
n0
C16
n0
C17
n0
C18
n0
O0 0
n0
k19
5
11
13
15
17
19
21
23
25
27
29
31
33
35
37
39
41
43
45
J0 3
0 -1
1 -2
2 1
J1 3
0 1
1 -2
3 1
J2 3
0 2
1 -1
4 1
J3 3
0 1
1 2
5 1
J4 3
0 -1
1 2
6 1
J5 2
1 -1
7 1
J6 6
8 -2
9 -2
10 -1
11 2
12 2
13 -1
J7 2
8 1
14 -400
J8 2
9 1
15 -400
J9 2
10 1
16 -400
J10 2
11 1
17 -400
J11 2
12 1
18 -400
J12 2
13 1
19 -400
J13 2
2 1
14 400
J14 2
3 1
15 400
J15 2
4 1
16 400
J16 2
5 1
17 400
J17 2
6 1
18 400
J18 2
7 1
19 400
G0 2
0 -1
1 -3
